========== Env & Dir ==========
Host: node3103
Start: Thu Jan 15 00:54:08 EST 2026
Submit dir: /orcd/home/002/jositu/ad_opt
PWD: /orcd/home/002/jositu/ad_opt
===============================
Load modules...
Activate environment...
Running backtest_daily.py --day 2025-12-03

=== Day 2025-12-03 ===
Set parameter WLSAccessID
Set parameter WLSSecret
Set parameter LicenseID to value 2760147
Academic license 2760147 - for non-commercial use only - registered to jo___@mit.edu
Set parameter OutputFlag to value 1
Set parameter TimeLimit to value 300
Set parameter MIPGap to value 0.05
[Info] Pruned 2118 rows with negative predicted clicks at Cost=0.
Gurobi Optimizer version 13.0.0 build v13.0.0rc1 (linux64 - "Rocky Linux 8.10 (Green Obsidian)")

CPU model: AMD EPYC 9474F 48-Core Processor, instruction set [SSE2|AVX|AVX2|AVX512]
Thread count: 96 physical cores, 192 logical processors, using up to 32 threads

Non-default parameters:
TimeLimit  300
MIPGap  0.05

Academic license 2760147 - for non-commercial use only - registered to jo___@mit.edu
Optimize a model with 1450448 rows, 787133 columns and 4123902 nonzeros (Max)
Model fingerprint: 0xabb4a644
Model has 14064 linear objective coefficients
Variable types: 28128 continuous, 759005 integer (759005 binary)
Coefficient statistics:
  Matrix range     [1e-03, 4e+02]
  Objective range  [1e+00, 1e+00]
  Bounds range     [1e+00, 1e+00]
  RHS range        [1e+01, 4e+02]
Found heuristic solution: objective -0.0000000
Presolve removed 235834 rows and 21074 columns (presolve time = 5s)...
Presolve removed 621745 rows and 21741 columns (presolve time = 13s)...
Presolve removed 625966 rows and 24862 columns (presolve time = 15s)...
Presolve removed 626349 rows and 24900 columns (presolve time = 20s)...
Presolve removed 626425 rows and 24987 columns
Presolve time: 20.99s
Presolved: 824023 rows, 762146 columns, 2505805 nonzeros
Variable types: 13864 continuous, 748282 integer (748282 binary)
Found heuristic solution: objective 53.3286537
Deterministic concurrent LP optimizer: primal simplex, dual simplex, and barrier
Showing barrier log only...

Root barrier log...

Ordering time: 0.46s

Barrier statistics:
 AA' NZ     : 1.456e+07
 Factor NZ  : 2.287e+07 (roughly 800 MB of memory)
 Factor Ops : 7.856e+08 (less than 1 second per iteration)
 Threads    : 30

                  Objective                Residual
Iter       Primal          Dual         Primal    Dual     Compl     Time
   0   3.17154516e+07  7.62163801e+07  1.41e+06 2.58e+00  2.21e+03    29s
   1   1.26571318e+07  8.10342833e+07  5.90e+05 7.11e-14  9.86e+02    30s
   2   4.50178231e+05  6.60575315e+07  1.69e+04 8.35e-14  5.70e+01    30s
   3   1.19137933e+05  1.27196527e+07  3.48e+03 1.28e-13  9.72e+00    31s
   4   4.42787347e+04  2.46126368e+06  8.85e+02 1.71e-13  1.92e+00    32s
   5   1.79334448e+04  7.91398546e+05  2.47e+02 1.85e-13  5.73e-01    33s
   6   9.56390912e+03  2.27106832e+05  5.45e+01 2.13e-13  1.47e-01    33s
   7   7.99205714e+03  5.87335901e+04  4.29e+00 1.72e-13  2.73e-02    34s
   8   1.21965472e+04  2.11533927e+04  1.49e-01 1.33e-13  4.36e-03    34s
   9   1.40369308e+04  1.94343361e+04  5.10e-02 9.80e-14  2.61e-03    35s
  10   1.42890560e+04  1.83976822e+04  3.86e-02 7.80e-14  1.99e-03    35s
  11   1.44988483e+04  1.78866798e+04  2.90e-02 6.98e-14  1.64e-03    36s
  12   1.45593623e+04  1.75759805e+04  2.66e-02 5.79e-14  1.46e-03    37s
  13   1.45836896e+04  1.74336449e+04  2.58e-02 5.57e-14  1.38e-03    38s
  14   1.46074183e+04  1.74015267e+04  2.50e-02 5.70e-14  1.35e-03    38s
  15   1.46340400e+04  1.73167586e+04  2.41e-02 5.61e-14  1.30e-03    39s
  16   1.46612679e+04  1.71184030e+04  2.32e-02 5.73e-14  1.19e-03    40s
  17   1.47001389e+04  1.70805006e+04  2.20e-02 4.55e-14  1.15e-03    40s
  18   1.47198673e+04  1.70335650e+04  2.15e-02 4.97e-14  1.12e-03    41s
  19   1.47647381e+04  1.69691677e+04  2.02e-02 4.47e-14  1.07e-03    42s
  20   1.47950050e+04  1.69067681e+04  1.93e-02 4.52e-14  1.02e-03    43s
  21   1.48306216e+04  1.68395573e+04  1.83e-02 4.34e-14  9.71e-04    44s
  22   1.48585773e+04  1.67435723e+04  1.75e-02 4.06e-14  9.11e-04    44s
  23   1.48950344e+04  1.66965146e+04  1.65e-02 3.80e-14  8.71e-04    45s
  24   1.49261464e+04  1.66517904e+04  1.57e-02 4.03e-14  8.34e-04    46s
  25   1.49289715e+04  1.65968831e+04  1.56e-02 4.21e-14  8.06e-04    47s
  26   1.49658201e+04  1.65770302e+04  1.46e-02 3.68e-14  7.79e-04    48s
  27   1.49842225e+04  1.65373012e+04  1.42e-02 3.41e-14  7.51e-04    49s
  28   1.50015678e+04  1.64875958e+04  1.38e-02 3.85e-14  7.18e-04    49s
  29   1.50163134e+04  1.64568910e+04  1.34e-02 3.21e-14  6.96e-04    50s
  30   1.50310546e+04  1.64279188e+04  1.30e-02 3.21e-14  6.75e-04    51s
  31   1.50626311e+04  1.64264539e+04  1.23e-02 3.70e-14  6.59e-04    51s
  32   1.50756466e+04  1.63807404e+04  1.20e-02 3.24e-14  6.31e-04    52s
  33   1.51031652e+04  1.63497290e+04  1.13e-02 3.21e-14  6.03e-04    53s
  34   1.51210788e+04  1.63158362e+04  1.09e-02 2.91e-14  5.77e-04    53s
  35   1.51506684e+04  1.62733384e+04  1.02e-02 2.82e-14  5.43e-04    54s
  36   1.51703888e+04  1.62346265e+04  9.70e-03 3.32e-14  5.14e-04    55s
  37   1.51977914e+04  1.62005982e+04  9.04e-03 2.70e-14  4.85e-04    56s
  38   1.52101589e+04  1.61832966e+04  8.76e-03 3.04e-14  4.70e-04    56s
  39   1.52344885e+04  1.61254462e+04  8.20e-03 2.86e-14  4.31e-04    57s
  40   1.52586362e+04  1.60960794e+04  7.64e-03 2.73e-14  4.05e-04    58s
  41   1.52755676e+04  1.60334014e+04  7.27e-03 2.65e-14  3.66e-04    59s
  42   1.52834372e+04  1.60106454e+04  7.08e-03 2.69e-14  3.52e-04    60s
  43   1.53050281e+04  1.59870802e+04  6.57e-03 2.53e-14  3.30e-04    60s
  44   1.53135172e+04  1.59584147e+04  6.39e-03 1.95e-14  3.12e-04    61s
  45   1.53263723e+04  1.59432557e+04  6.11e-03 2.59e-14  2.98e-04    62s
  46   1.53483617e+04  1.59308237e+04  5.62e-03 2.21e-14  2.82e-04    62s
  47   1.53589153e+04  1.59042301e+04  5.39e-03 1.72e-14  2.64e-04    63s
  48   1.53664482e+04  1.58938283e+04  5.23e-03 1.90e-14  2.55e-04    64s
  49   1.53769518e+04  1.58743511e+04  4.99e-03 1.98e-14  2.40e-04    65s
  50   1.53914139e+04  1.58551134e+04  4.68e-03 2.07e-14  2.24e-04    65s
  51   1.54003043e+04  1.58316563e+04  4.49e-03 1.89e-14  2.09e-04    66s
  52   1.54139603e+04  1.58182072e+04  4.19e-03 1.70e-14  1.95e-04    67s
  53   1.54177528e+04  1.58101214e+04  4.11e-03 1.76e-14  1.90e-04    67s
  54   1.54302505e+04  1.57952055e+04  3.84e-03 2.75e-14  1.76e-04    68s
  55   1.54372362e+04  1.57806116e+04  3.68e-03 1.87e-14  1.66e-04    69s
  56   1.54472239e+04  1.57682734e+04  3.47e-03 1.61e-14  1.55e-04    70s
  57   1.54478536e+04  1.57642884e+04  3.45e-03 1.65e-14  1.53e-04    71s

Barrier performed 57 iterations in 70.71 seconds (61.65 work units)
Barrier solve interrupted - model solved by another algorithm

Concurrent spin time: 16.44s (can be avoided by choosing Method=3)

Solved with dual simplex

Root simplex log...

Iteration    Objective       Primal Inf.    Dual Inf.      Time
  656567    1.5610549e+04   0.000000e+00   0.000000e+00     73s

Root relaxation: objective 1.561055e+04, 656567 iterations, 47.32 seconds (29.25 work units)

    Nodes    |    Current Node    |     Objective Bounds      |     Work
 Expl Unexpl |  Obj  Depth IntInf | Incumbent    BestBd   Gap | It/Node Time

     0     0 15610.5492    0 9232   53.32865 15610.5492      -     -   74s
H    0     0                    14661.160583 15610.5492  6.48%     -   75s
H    0     0                    14712.356709 15610.5492  6.11%     -   76s
H    0     0                    14753.342171 15610.5492  5.81%     -   77s
H    0     0                    14756.758510 15610.5492  5.79%     -   78s
H    0     0                    14766.083456 15610.5492  5.72%     -   78s
H    0     0                    14771.652624 15610.5492  5.68%     -   78s
H    0     0                    14782.327448 15610.5492  5.60%     -   79s
H    0     0                    14867.691716 15610.5492  5.00%     -   79s

Explored 1 nodes (656568 simplex iterations) in 79.79 seconds (67.31 work units)
Thread count was 32 (of 192 available processors)

Solution count 10: 14867.7 14782.3 14771.7 ... -0

Optimal solution found (tolerance 5.00e-02)
Best objective 1.486769171604e+04, best bound 1.561054922448e+04, gap 4.9965%
[Info] Optimization Success. Objective Value: 14867.6917
[Info] Max discrepancy between Gurobi and XGBoost: 4.833767
[Info] Sample of Optimization Results:
                Keyword Region  ... Actual Model Pred          Diff
0  1 mit opencourseware      A  ...          0.384027  1.555127e-07
1  1 mit opencourseware      A  ...          0.564377  3.115092e-07
2  1 mit opencourseware      A  ...          0.603124  2.737476e-07
3  1 mit opencourseware      B  ...          0.630586  2.106463e-07
4  1 mit opencourseware      B  ...          0.810936  2.474336e-07

[5 rows x 7 columns]

Backtest complete. Evaluation saved to opt_results/backtests/daily_eval_2025-12-03.csv
End: Thu Jan 15 00:55:57 EST 2026
